
Gurobi 7.5.2 (linux64) logging started Sun Jan  3 00:12:31 2021

Changed value of parameter LogFile to /home/aniket/python_scripts/Plasmids-Optimization/exp/2019-05-07__iterative_MILP_unweighted/feasibility_check/sample_103/1.1.1/nplasmids_1/MILP/m.log
   Prev: gurobi.log  Default: 
Changed value of parameter TimeLimit to 2400.0
   Prev: 1e+100  Min: 0.0  Max: 1e+100  Default: 1e+100
Optimize a model with 2067 rows, 955 columns and 3582 nonzeros
Variable types: 366 continuous, 589 integer (224 binary)
Coefficient statistics:
  Matrix range     [1e-02, 5e+05]
  Objective range  [2e-03, 1e+00]
  Bounds range     [1e+00, 1e+00]
  RHS range        [3e-01, 2e+05]
Presolve removed 1799 rows and 751 columns
Presolve time: 0.00s
Presolved: 268 rows, 204 columns, 779 nonzeros
Variable types: 45 continuous, 159 integer (113 binary)
Found heuristic solution: objective -1.5078070

Root relaxation: cutoff, 103 iterations, 0.00 seconds

    Nodes    |    Current Node    |     Objective Bounds      |     Work
 Expl Unexpl |  Obj  Depth IntInf | Incumbent    BestBd   Gap | It/Node Time

     0     0     cutoff    0        -1.50781   -1.50781  0.00%     -    0s

Explored 0 nodes (103 simplex iterations) in 0.01 seconds
Thread count was 4 (of 4 available processors)

Solution count 1: -1.50781 

Optimal solution found (tolerance 1.00e-04)
Best objective -1.507806971071e+00, best bound -1.507806971071e+00, gap 0.0000%
Optimize a model with 2068 rows, 955 columns and 3584 nonzeros
Variable types: 366 continuous, 589 integer (224 binary)
Coefficient statistics:
  Matrix range     [1e-02, 5e+05]
  Objective range  [2e-03, 1e+00]
  Bounds range     [1e+00, 1e+00]
  RHS range        [3e-01, 2e+05]

MIP start did not produce a new incumbent solution
MIP start violates constraint circular by 1.000000000

Presolve removed 1800 rows and 751 columns
Presolve time: 0.00s
Presolved: 268 rows, 204 columns, 779 nonzeros
Variable types: 45 continuous, 159 integer (113 binary)
Found heuristic solution: objective -1.5078070

Root relaxation: cutoff, 103 iterations, 0.00 seconds

    Nodes    |    Current Node    |     Objective Bounds      |     Work
 Expl Unexpl |  Obj  Depth IntInf | Incumbent    BestBd   Gap | It/Node Time

     0     0     cutoff    0        -1.50781   -1.50781  0.00%     -    0s

Explored 0 nodes (103 simplex iterations) in 0.01 seconds
Thread count was 4 (of 4 available processors)

Solution count 1: -1.50781 

Optimal solution found (tolerance 1.00e-04)
Best objective -1.507806971071e+00, best bound -1.507806971071e+00, gap 0.0000%
Optimize a model with 2069 rows, 955 columns and 3586 nonzeros
Variable types: 366 continuous, 589 integer (224 binary)
Coefficient statistics:
  Matrix range     [1e-02, 5e+05]
  Objective range  [2e-03, 1e+00]
  Bounds range     [1e+00, 1e+00]
  RHS range        [3e-01, 2e+05]

MIP start did not produce a new incumbent solution
MIP start violates constraint circular by 1.000000000

Presolve removed 1797 rows and 748 columns
Presolve time: 0.00s
Presolved: 272 rows, 207 columns, 790 nonzeros
Variable types: 45 continuous, 162 integer (117 binary)

Root relaxation: objective -1.507807e+00, 99 iterations, 0.00 seconds

    Nodes    |    Current Node    |     Objective Bounds      |     Work
 Expl Unexpl |  Obj  Depth IntInf | Incumbent    BestBd   Gap | It/Node Time

*    0     0               0      -1.5078070   -1.50781  0.00%     -    0s

Explored 0 nodes (99 simplex iterations) in 0.01 seconds
Thread count was 4 (of 4 available processors)

Solution count 1: -1.50781 

Optimal solution found (tolerance 1.00e-04)
Best objective -1.507806971071e+00, best bound -1.507806971071e+00, gap 0.0000%

Gurobi 7.5.2 (linux64) logging started Sun Jan  3 00:12:31 2021

Changed value of parameter LogFile to /home/aniket/python_scripts/Plasmids-Optimization/exp/2019-05-07__iterative_MILP_unweighted/feasibility_check/sample_103/1.1.1/nplasmids_1/MILP/m.log
   Prev: gurobi.log  Default: 
Changed value of parameter TimeLimit to 2400.0
   Prev: 1e+100  Min: 0.0  Max: 1e+100  Default: 1e+100
Optimize a model with 2070 rows, 955 columns and 3585 nonzeros
Variable types: 366 continuous, 589 integer (224 binary)
Coefficient statistics:
  Matrix range     [1e-02, 5e+05]
  Objective range  [2e-03, 1e+00]
  Bounds range     [1e+00, 1e+00]
  RHS range        [3e-01, 2e+05]
Presolve removed 1812 rows and 760 columns
Presolve time: 0.00s
Presolved: 258 rows, 195 columns, 746 nonzeros
Variable types: 43 continuous, 152 integer (107 binary)
Found heuristic solution: objective -4.8927481

Root relaxation: objective -6.400555e+00, 48 iterations, 0.00 seconds

    Nodes    |    Current Node    |     Objective Bounds      |     Work
 Expl Unexpl |  Obj  Depth IntInf | Incumbent    BestBd   Gap | It/Node Time

*    0     0               0      -6.4005551   -6.40056  0.00%     -    0s

Explored 0 nodes (48 simplex iterations) in 0.01 seconds
Thread count was 4 (of 4 available processors)

Solution count 2: -6.40056 -4.89275 

Optimal solution found (tolerance 1.00e-04)
Best objective -6.400555092656e+00, best bound -6.400555092656e+00, gap 0.0000%
Optimize a model with 2071 rows, 955 columns and 3587 nonzeros
Variable types: 366 continuous, 589 integer (224 binary)
Coefficient statistics:
  Matrix range     [1e-02, 5e+05]
  Objective range  [2e-03, 1e+00]
  Bounds range     [1e+00, 1e+00]
  RHS range        [3e-01, 2e+05]

MIP start did not produce a new incumbent solution
MIP start violates constraint circular by 1.000000000

Presolve removed 1814 rows and 760 columns
Presolve time: 0.00s
Presolved: 257 rows, 195 columns, 745 nonzeros
Variable types: 43 continuous, 152 integer (107 binary)
Found heuristic solution: objective -4.8927481

Root relaxation: objective -5.636651e+00, 84 iterations, 0.00 seconds

    Nodes    |    Current Node    |     Objective Bounds      |     Work
 Expl Unexpl |  Obj  Depth IntInf | Incumbent    BestBd   Gap | It/Node Time

*    0     0               0      -5.6366506   -5.63665  0.00%     -    0s

Explored 0 nodes (95 simplex iterations) in 0.01 seconds
Thread count was 4 (of 4 available processors)

Solution count 2: -5.63665 -4.89275 

Optimal solution found (tolerance 1.00e-04)
Best objective -5.636650560610e+00, best bound -5.636650560610e+00, gap 0.0000%
Optimize a model with 2072 rows, 955 columns and 3589 nonzeros
Variable types: 366 continuous, 589 integer (224 binary)
Coefficient statistics:
  Matrix range     [1e-02, 5e+05]
  Objective range  [2e-03, 1e+00]
  Bounds range     [1e+00, 1e+00]
  RHS range        [3e-01, 2e+05]

MIP start did not produce a new incumbent solution
MIP start violates constraint circular by 1.000000000

Presolve removed 1814 rows and 760 columns
Presolve time: 0.00s
Presolved: 258 rows, 195 columns, 750 nonzeros
Variable types: 43 continuous, 152 integer (107 binary)
Found heuristic solution: objective -4.8927481

Root relaxation: cutoff, 75 iterations, 0.00 seconds

    Nodes    |    Current Node    |     Objective Bounds      |     Work
 Expl Unexpl |  Obj  Depth IntInf | Incumbent    BestBd   Gap | It/Node Time

     0     0     cutoff    0        -4.89275   -4.89275  0.00%     -    0s

Explored 0 nodes (75 simplex iterations) in 0.01 seconds
Thread count was 4 (of 4 available processors)

Solution count 1: -4.89275 

Optimal solution found (tolerance 1.00e-04)
Best objective -4.892748121586e+00, best bound -4.892748121586e+00, gap 0.0000%

Gurobi 7.5.2 (linux64) logging started Sun Jan  3 00:12:31 2021

Changed value of parameter LogFile to /home/aniket/python_scripts/Plasmids-Optimization/exp/2019-05-07__iterative_MILP_unweighted/feasibility_check/sample_103/1.1.1/nplasmids_1/MILP/m.log
   Prev: gurobi.log  Default: 
Changed value of parameter TimeLimit to 2400.0
   Prev: 1e+100  Min: 0.0  Max: 1e+100  Default: 1e+100
Optimize a model with 2033 rows, 940 columns and 3507 nonzeros
Variable types: 361 continuous, 579 integer (219 binary)
Coefficient statistics:
  Matrix range     [1e-02, 5e+05]
  Objective range  [2e-03, 1e+00]
  Bounds range     [1e+00, 1e+00]
  RHS range        [3e-01, 2e+05]
Presolve removed 1161 rows and 479 columns
Presolve time: 0.00s

Explored 0 nodes (0 simplex iterations) in 0.00 seconds
Thread count was 1 (of 4 available processors)

Solution count 0

Model is infeasible or unbounded
Best objective -, best bound -, gap -
Presolve removed 1161 rows and 479 columns
Presolve time: 0.00s

Explored 0 nodes (0 simplex iterations) in 0.00 seconds
Thread count was 1 (of 4 available processors)

Solution count 0

Model is infeasible
Best objective -, best bound -, gap -

Computing Irreducible Inconsistent Subsystem (IIS)...

      Constraints           Bounds       Runtime
     Min       Max       Min      Max
------------------------------------------------
        0     1744         0      721         0s
       86       86        59       59         0s

IIS computed: 86 constraints, 59 bounds
IIS runtime: 0.11 seconds
Warning: linear constraint 0 and linear constraint 1 have the same name "counted_length"
